benchmarks_CP/INST_36x36/45/inst36x36_45_5.dzn
S=6;
start=[|
6,	36,	-1,	-1,	25,	-1,	29,	-1,	-1,	14,	-1,	-1,	-1,	-1,	22,	24,	1,	-1,	32,	-1,	21,	-1,	17,	5,	20,	-1,	-1,	-1,	-1,	31,	-1,	-1,	-1,	-1,	-1,	-1|
13,	15,	-1,	32,	35,	28,	-1,	-1,	4,	16,	36,	22,	27,	31,	7,	33,	-1,	2,	-1,	12,	25,	29,	1,	9,	30,	14,	-1,	26,	-1,	-1,	-1,	-1,	-1,	-1,	-1,	-1|
-1,	-1,	21,	-1,	-1,	33,	9,	20,	12,	-1,	-1,	2,	6,	-1,	-1,	25,	14,	29,	10,	-1,	26,	15,	-1,	8,	32,	-1,	-1,	24,	-1,	-1,	28,	-1,	30,	5,	31,	22|
-1,	-1,	-1,	24,	-1,	7,	15,	-1,	-1,	18,	-1,	34,	30,	-1,	-1,	-1,	-1,	-1,	-1,	-1,	-1,	6,	-1,	31,	-1,	33,	36,	-1,	-1,	22,	-1,	-1,	-1,	-1,	-1,	-1|
10,	22,	-1,	-1,	-1,	-1,	-1,	1,	24,	33,	28,	5,	15,	8,	-1,	11,	-1,	-1,	23,	30,	-1,	36,	-1,	-1,	6,	25,	-1,	16,	7,	2,	-1,	19,	-1,	14,	-1,	32|
11,	-1,	14,	18,	16,	-1,	19,	-1,	-1,	30,	-1,	31,	-1,	-1,	-1,	-1,	-1,	-1,	33,	-1,	-1,	28,	24,	-1,	15,	-1,	-1,	27,	-1,	35,	-1,	2,	-1,	-1,	8,	34|
16,	-1,	2,	-1,	-1,	3,	-1,	-1,	20,	11,	4,	6,	-1,	-1,	24,	-1,	12,	25,	35,	-1,	10,	-1,	-1,	-1,	36,	-1,	-1,	-1,	-1,	-1,	-1,	14,	-1,	-1,	-1,	-1|
25,	-1,	-1,	28,	-1,	-1,	27,	-1,	9,	1,	-1,	19,	-1,	-1,	33,	-1,	-1,	-1,	-1,	-1,	-1,	3,	21,	-1,	-1,	10,	-1,	35,	14,	-1,	5,	-1,	-1,	17,	29,	24|
14,	20,	36,	-1,	-1,	29,	-1,	-1,	8,	2,	22,	24,	23,	28,	16,	18,	-1,	31,	-1,	17,	-1,	32,	-1,	34,	-1,	21,	33,	-1,	-1,	12,	9,	25,	26,	-1,	35,	-1|
-1,	-1,	-1,	-1,	31,	-1,	18,	14,	35,	36,	-1,	26,	-1,	22,	-1,	32,	-1,	-1,	-1,	25,	-1,	-1,	-1,	12,	5,	-1,	7,	-1,	-1,	1,	27,	28,	-1,	-1,	30,	-1|
21,	-1,	-1,	5,	6,	17,	-1,	-1,	23,	-1,	-1,	28,	-1,	34,	10,	19,	29,	-1,	-1,	13,	-1,	8,	15,	30,	31,	2,	-1,	25,	-1,	-1,	11,	7,	-1,	-1,	-1,	-1|
35,	-1,	-1,	-1,	27,	-1,	-1,	-1,	-1,	-1,	17,	29,	-1,	14,	5,	-1,	2,	-1,	26,	-1,	33,	22,	-1,	36,	9,	-1,	16,	23,	4,	24,	-1,	21,	19,	32,	20,	18|
33,	-1,	12,	-1,	32,	-1,	-1,	-1,	-1,	-1,	-1,	-1,	-1,	9,	-1,	22,	23,	4,	11,	-1,	-1,	34,	36,	-1,	21,	-1,	14,	20,	-1,	26,	29,	27,	-1,	19,	2,	-1|
22,	2,	-1,	-1,	28,	-1,	32,	-1,	-1,	34,	-1,	-1,	-1,	-1,	-1,	15,	5,	-1,	16,	-1,	-1,	12,	-1,	10,	23,	-1,	-1,	-1,	-1,	30,	-1,	-1,	-1,	-1,	-1,	-1|
8,	-1,	-1,	-1,	36,	-1,	-1,	-1,	-1,	-1,	31,	-1,	16,	-1,	6,	12,	21,	-1,	29,	-1,	-1,	-1,	32,	25,	4,	27,	-1,	-1,	3,	-1,	-1,	20,	-1,	30,	-1,	9|
-1,	26,	31,	-1,	11,	5,	20,	33,	29,	-1,	-1,	-1,	24,	-1,	14,	-1,	34,	32,	-1,	-1,	13,	-1,	4,	-1,	1,	17,	28,	-1,	36,	-1,	10,	-1,	-1,	-1,	21,	-1|
-1,	-1,	4,	-1,	3,	-1,	-1,	-1,	-1,	21,	-1,	-1,	2,	26,	-1,	-1,	28,	-1,	-1,	-1,	8,	-1,	-1,	-1,	33,	22,	25,	5,	-1,	32,	-1,	-1,	12,	1,	-1,	-1|
-1,	19,	-1,	15,	-1,	-1,	-1,	16,	-1,	4,	-1,	3,	-1,	29,	30,	-1,	36,	-1,	-1,	-1,	18,	-1,	-1,	28,	-1,	-1,	-1,	-1,	-1,	-1,	-1,	22,	25,	-1,	32,	26|
-1,	4,	35,	-1,	-1,	-1,	-1,	2,	19,	-1,	6,	7,	-1,	-1,	-1,	5,	16,	-1,	-1,	-1,	12,	18,	-1,	-1,	3,	-1,	-1,	-1,	27,	-1,	-1,	-1,	-1,	-1,	-1,	-1|
-1,	7,	-1,	6,	-1,	-1,	-1,	-1,	-1,	22,	-1,	21,	29,	-1,	-1,	23,	31,	-1,	5,	2,	15,	25,	-1,	33,	-1,	-1,	34,	11,	-1,	36,	-1,	30,	-1,	10,	-1,	13|
-1,	21,	25,	-1,	-1,	2,	11,	-1,	-1,	15,	-1,	-1,	-1,	-1,	-1,	-1,	-1,	26,	-1,	-1,	6,	35,	-1,	-1,	-1,	12,	23,	14,	13,	-1,	-1,	-1,	-1,	7,	-1,	-1|
17,	-1,	5,	-1,	-1,	-1,	14,	-1,	28,	-1,	26,	-1,	-1,	-1,	2,	21,	-1,	6,	30,	-1,	-1,	-1,	13,	-1,	35,	-1,	22,	-1,	16,	25,	-1,	-1,	-1,	20,	-1,	8|
28,	-1,	22,	-1,	-1,	-1,	-1,	-1,	-1,	20,	-1,	-1,	-1,	35,	-1,	36,	-1,	-1,	-1,	4,	29,	-1,	-1,	-1,	8,	-1,	-1,	1,	33,	-1,	32,	-1,	-1,	-1,	19,	-1|
-1,	3,	19,	-1,	-1,	-1,	-1,	-1,	-1,	-1,	-1,	18,	33,	-1,	11,	-1,	22,	14,	21,	-1,	28,	-1,	31,	-1,	7,	-1,	15,	-1,	2,	17,	-1,	-1,	-1,	-1,	-1,	-1|
23,	35,	-1,	-1,	2,	19,	-1,	-1,	34,	-1,	-1,	-1,	8,	-1,	32,	-1,	10,	-1,	28,	33,	-1,	-1,	-1,	-1,	14,	-1,	12,	21,	22,	20,	-1,	-1,	-1,	16,	-1,	31|
-1,	-1,	28,	-1,	17,	4,	-1,	-1,	-1,	-1,	33,	-1,	-1,	-1,	18,	-1,	-1,	15,	3,	11,	32,	-1,	-1,	-1,	34,	-1,	-1,	-1,	-1,	29,	13,	-1,	36,	21,	-1,	-1|
-1,	-1,	13,	-1,	-1,	-1,	-1,	-1,	-1,	-1,	5,	15,	-1,	-1,	28,	-1,	6,	16,	4,	-1,	24,	-1,	8,	18,	-1,	7,	-1,	-1,	23,	9,	19,	-1,	2,	-1,	22,	33|
18,	33,	-1,	-1,	-1,	26,	12,	32,	21,	8,	20,	9,	-1,	27,	-1,	14,	-1,	-1,	-1,	-1,	31,	-1,	-1,	16,	2,	35,	11,	-1,	-1,	6,	-1,	-1,	28,	-1,	-1,	25|
-1,	27,	-1,	30,	-1,	-1,	28,	-1,	-1,	-1,	2,	-1,	-1,	-1,	-1,	-1,	25,	22,	-1,	-1,	23,	17,	-1,	-1,	26,	-1,	3,	-1,	8,	13,	-1,	-1,	7,	-1,	5,	20|
31,	-1,	6,	22,	12,	8,	25,	-1,	-1,	-1,	29,	23,	-1,	-1,	1,	-1,	3,	9,	-1,	-1,	2,	-1,	-1,	35,	-1,	-1,	32,	28,	-1,	33,	-1,	11,	15,	-1,	-1,	-1|
-1,	-1,	-1,	36,	1,	-1,	7,	34,	-1,	9,	25,	-1,	-1,	-1,	-1,	-1,	27,	-1,	-1,	-1,	30,	33,	18,	-1,	11,	32,	6,	13,	-1,	-1,	-1,	24,	10,	-1,	-1,	-1|
-1,	12,	-1,	-1,	-1,	25,	-1,	-1,	-1,	-1,	24,	20,	-1,	30,	-1,	-1,	-1,	21,	8,	29,	14,	-1,	-1,	22,	27,	36,	-1,	15,	-1,	10,	23,	-1,	-1,	-1,	-1,	19|
24,	28,	-1,	-1,	-1,	-1,	-1,	-1,	2,	-1,	11,	-1,	22,	19,	-1,	-1,	-1,	5,	-1,	-1,	-1,	4,	-1,	17,	16,	-1,	-1,	34,	20,	7,	30,	-1,	-1,	9,	-1,	21|
-1,	-1,	-1,	-1,	-1,	-1,	-1,	27,	-1,	3,	19,	13,	32,	-1,	36,	31,	-1,	-1,	25,	16,	-1,	-1,	11,	1,	-1,	30,	-1,	33,	12,	-1,	-1,	-1,	20,	-1,	-1,	-1|
-1,	-1,	-1,	19,	-1,	-1,	23,	22,	-1,	-1,	35,	-1,	9,	-1,	12,	-1,	-1,	8,	-1,	-1,	20,	-1,	-1,	-1,	-1,	-1,	2,	-1,	-1,	3,	-1,	-1,	-1,	18,	14,	27|
3,	-1,	-1,	31,	-1,	30,	36,	-1,	-1,	-1,	-1,	32,	-1,	-1,	13,	6,	11,	-1,	15,	-1,	-1,	7,	-1,	26,	24,	-1,	-1,	-1,	-1,	-1,	-1,	16,	1,	-1,	-1,	4|];
